c WARNING: for repeatability, setting FPU to use double precision
d VARIABLES            72338        
d CONSTRAINTS          288339       
c ============================[ Problem Statistics ]=============================
c |                                                                             |
c |  Number of variables:         72338                                         |
c |  Number of clauses:          288339                                         |
c |  Parse time:                   0.04 s                                       |
c |                                                                             |
c ============================[ Search Statistics ]==============================
c | Conflicts |          ORIGINAL         |          LEARNT          | Progress |
c |           |    Vars  Clauses Literals |    Limit  Clauses Lit/Cl |          |
c ===============================================================================
c |       100 |   52648   237513   580855 |    87088      100     94 | 27.219 % |
c |       250 |   52648   237513   580855 |    95796      250     99 | 27.219 % |
c |       475 |   52648   237513   580855 |   105376      475    122 | 27.219 % |
c |       812 |   52648   237513   580855 |   115914      812    102 | 27.219 % |
c |      1318 |   52648   237513   580855 |   127505     1318    121 | 27.219 % |
c |      2077 |   52648   237513   580855 |   140256     2077    122 | 27.219 % |
c |      3216 |   52648   237513   580855 |   154281     3216    132 | 27.219 % |
c |      4924 |   52647   237503   580832 |   169710     4923    121 | 27.221 % |
c |      7486 |   52643   237473   580762 |   186681     7480    134 | 27.226 % |
c |     11330 |   52643   237473   580762 |   205349    11324    155 | 27.226 % |
c |     17096 |   52643   237473   580762 |   225884    17090    152 | 27.226 % |
c |     25745 |   52639   237429   580658 |   248472    25729    147 | 27.232 % |
c |     38719 |   52639   237429   580658 |   273319    38703    127 | 27.232 % |
c ===============================================================================
c restarts              : 178
c conflicts             : 56712          (3299 /sec)
c decisions             : 193878         (0.00 % random) (11279 /sec)
c propagations          : 95607420       (5562104 /sec)
c conflict literals     : 7634077        (37.16 % deleted)
d RESTARTS             178
d FAILURES             56712        
d NODES                193878       
d BACKTRACKS           193878       
d PROPAGATIONS         95607420     
d NOGOODSIZE           134.61 
d MEMORY               73.00 
d TIME                 17.1891 

s UNSATISFIABLE
